# Solution for model evaporation_srl_ilp
# Objective value = 1.2977706384912679e+01
Z_2_0_0 0
Z_2_0_1 0
Z_2_0_2 0
Z_2_0_3 1
Z_2_0_4 0
Z_589_1_0 0
Z_589_1_1 0
Z_589_1_2 1
Z_589_1_3 0
Z_589_1_4 0
Z_310_4_0 0
Z_310_4_1 0
Z_310_4_2 0
Z_310_4_3 0
Z_310_4_4 1
Z_310_1_0 0
Z_310_1_1 0
Z_310_1_2 0
Z_310_1_3 0
Z_310_1_4 1
Z_310_5_0 0
Z_310_5_1 0
Z_310_5_2 0
Z_310_5_3 0
Z_310_5_4 1
Z_310_2_0 0
Z_310_2_1 0
Z_310_2_2 0
Z_310_2_3 0
Z_310_2_4 1
Z_310_6_0 0
Z_310_6_1 0
Z_310_6_2 0
Z_310_6_3 0
Z_310_6_4 1
Z_310_0_0 0
Z_310_0_1 0
Z_310_0_2 0
Z_310_0_3 0
Z_310_0_4 1
Z_310_3_0 0
Z_310_3_1 0
Z_310_3_2 0
Z_310_3_3 0
Z_310_3_4 1
Z_551_1_0 0
Z_551_1_1 0
Z_551_1_2 1
Z_551_1_3 0
Z_551_1_4 0
Z_551_0_0 0
Z_551_0_1 0
Z_551_0_2 0
Z_551_0_3 0
Z_551_0_4 1
Z_307_0_0 0
Z_307_0_1 1
Z_307_0_2 0
Z_307_0_3 0
Z_307_0_4 0
Z_409_1_0 0
Z_409_1_1 0
Z_409_1_2 0
Z_409_1_3 0
Z_409_1_4 1
Z_159_0_0 0
Z_159_0_1 1
Z_159_0_2 0
Z_159_0_3 0
Z_159_0_4 0
Z_102_0_0 0
Z_102_0_1 0
Z_102_0_2 0
Z_102_0_3 0
Z_102_0_4 1
Z_102_1_0 0
Z_102_1_1 0
Z_102_1_2 1
Z_102_1_3 0
Z_102_1_4 0
